Minimize
  obj: Cmax
Subject To
  prec_0_0: s_0_1 - s_0_0 >= 10
  prec_0_1: s_0_2 - s_0_1 >= 18
  prec_1_0: s_1_1 - s_1_0 >= 2
  prec_1_1: s_1_2 - s_1_1 >= 13
  prec_2_0: s_2_1 - s_2_0 >= 14
  prec_2_1: s_2_2 - s_2_1 >= 3
  prec_3_0: s_3_1 - s_3_0 >= 18
  prec_3_1: s_3_2 - s_3_1 >= 16
  prec_4_0: s_4_1 - s_4_0 >= 16
  prec_4_1: s_4_2 - s_4_1 >= 1
  prec_5_0: s_5_1 - s_5_0 >= 19
  prec_5_1: s_5_2 - s_5_1 >= 3
  cmax_0: Cmax - s_0_2 >= 12
  cmax_1: Cmax - s_1_2 >= 19
  cmax_2: Cmax - s_2_2 >= 20
  cmax_3: Cmax - s_3_2 >= 12
  cmax_4: Cmax - s_4_2 >= 16
  cmax_5: Cmax - s_5_2 >= 2
  disj_a_0_0_1_2: s_1_2 - s_0_0 + 10000 z_0_0_1_2 >= 10
  disj_b_0_0_1_2: s_0_0 - s_1_2 - 10000 z_0_0_1_2 >= -9981
  disj_a_0_0_2_1: s_2_1 - s_0_0 + 10000 z_0_0_2_1 >= 10
  disj_b_0_0_2_1: s_0_0 - s_2_1 - 10000 z_0_0_2_1 >= -9997
  disj_a_0_0_3_0: s_3_0 - s_0_0 + 10000 z_0_0_3_0 >= 10
  disj_b_0_0_3_0: s_0_0 - s_3_0 - 10000 z_0_0_3_0 >= -9982
  disj_a_0_0_4_1: s_4_1 - s_0_0 + 10000 z_0_0_4_1 >= 10
  disj_b_0_0_4_1: s_0_0 - s_4_1 - 10000 z_0_0_4_1 >= -9999
  disj_a_0_0_5_2: s_5_2 - s_0_0 + 10000 z_0_0_5_2 >= 10
  disj_b_0_0_5_2: s_0_0 - s_5_2 - 10000 z_0_0_5_2 >= -9998
  disj_a_1_2_2_1: s_2_1 - s_1_2 + 10000 z_1_2_2_1 >= 19
  disj_b_1_2_2_1: s_1_2 - s_2_1 - 10000 z_1_2_2_1 >= -9997
  disj_a_1_2_3_0: s_3_0 - s_1_2 + 10000 z_1_2_3_0 >= 19
  disj_b_1_2_3_0: s_1_2 - s_3_0 - 10000 z_1_2_3_0 >= -9982
  disj_a_1_2_4_1: s_4_1 - s_1_2 + 10000 z_1_2_4_1 >= 19
  disj_b_1_2_4_1: s_1_2 - s_4_1 - 10000 z_1_2_4_1 >= -9999
  disj_a_1_2_5_2: s_5_2 - s_1_2 + 10000 z_1_2_5_2 >= 19
  disj_b_1_2_5_2: s_1_2 - s_5_2 - 10000 z_1_2_5_2 >= -9998
  disj_a_2_1_3_0: s_3_0 - s_2_1 + 10000 z_2_1_3_0 >= 3
  disj_b_2_1_3_0: s_2_1 - s_3_0 - 10000 z_2_1_3_0 >= -9982
  disj_a_2_1_4_1: s_4_1 - s_2_1 + 10000 z_2_1_4_1 >= 3
  disj_b_2_1_4_1: s_2_1 - s_4_1 - 10000 z_2_1_4_1 >= -9999
  disj_a_2_1_5_2: s_5_2 - s_2_1 + 10000 z_2_1_5_2 >= 3
  disj_b_2_1_5_2: s_2_1 - s_5_2 - 10000 z_2_1_5_2 >= -9998
  disj_a_3_0_4_1: s_4_1 - s_3_0 + 10000 z_3_0_4_1 >= 18
  disj_b_3_0_4_1: s_3_0 - s_4_1 - 10000 z_3_0_4_1 >= -9999
  disj_a_3_0_5_2: s_5_2 - s_3_0 + 10000 z_3_0_5_2 >= 18
  disj_b_3_0_5_2: s_3_0 - s_5_2 - 10000 z_3_0_5_2 >= -9998
  disj_a_4_1_5_2: s_5_2 - s_4_1 + 10000 z_4_1_5_2 >= 1
  disj_b_4_1_5_2: s_4_1 - s_5_2 - 10000 z_4_1_5_2 >= -9998
  disj_a_0_1_1_1: s_1_1 - s_0_1 + 10000 z_0_1_1_1 >= 18
  disj_b_0_1_1_1: s_0_1 - s_1_1 - 10000 z_0_1_1_1 >= -9987
  disj_a_0_1_2_0: s_2_0 - s_0_1 + 10000 z_0_1_2_0 >= 18
  disj_b_0_1_2_0: s_0_1 - s_2_0 - 10000 z_0_1_2_0 >= -9986
  disj_a_0_1_3_1: s_3_1 - s_0_1 + 10000 z_0_1_3_1 >= 18
  disj_b_0_1_3_1: s_0_1 - s_3_1 - 10000 z_0_1_3_1 >= -9984
  disj_a_0_1_4_2: s_4_2 - s_0_1 + 10000 z_0_1_4_2 >= 18
  disj_b_0_1_4_2: s_0_1 - s_4_2 - 10000 z_0_1_4_2 >= -9984
  disj_a_0_1_5_0: s_5_0 - s_0_1 + 10000 z_0_1_5_0 >= 18
  disj_b_0_1_5_0: s_0_1 - s_5_0 - 10000 z_0_1_5_0 >= -9981
  disj_a_1_1_2_0: s_2_0 - s_1_1 + 10000 z_1_1_2_0 >= 13
  disj_b_1_1_2_0: s_1_1 - s_2_0 - 10000 z_1_1_2_0 >= -9986
  disj_a_1_1_3_1: s_3_1 - s_1_1 + 10000 z_1_1_3_1 >= 13
  disj_b_1_1_3_1: s_1_1 - s_3_1 - 10000 z_1_1_3_1 >= -9984
  disj_a_1_1_4_2: s_4_2 - s_1_1 + 10000 z_1_1_4_2 >= 13
  disj_b_1_1_4_2: s_1_1 - s_4_2 - 10000 z_1_1_4_2 >= -9984
  disj_a_1_1_5_0: s_5_0 - s_1_1 + 10000 z_1_1_5_0 >= 13
  disj_b_1_1_5_0: s_1_1 - s_5_0 - 10000 z_1_1_5_0 >= -9981
  disj_a_2_0_3_1: s_3_1 - s_2_0 + 10000 z_2_0_3_1 >= 14
  disj_b_2_0_3_1: s_2_0 - s_3_1 - 10000 z_2_0_3_1 >= -9984
  disj_a_2_0_4_2: s_4_2 - s_2_0 + 10000 z_2_0_4_2 >= 14
  disj_b_2_0_4_2: s_2_0 - s_4_2 - 10000 z_2_0_4_2 >= -9984
  disj_a_2_0_5_0: s_5_0 - s_2_0 + 10000 z_2_0_5_0 >= 14
  disj_b_2_0_5_0: s_2_0 - s_5_0 - 10000 z_2_0_5_0 >= -9981
  disj_a_3_1_4_2: s_4_2 - s_3_1 + 10000 z_3_1_4_2 >= 16
  disj_b_3_1_4_2: s_3_1 - s_4_2 - 10000 z_3_1_4_2 >= -9984
  disj_a_3_1_5_0: s_5_0 - s_3_1 + 10000 z_3_1_5_0 >= 16
  disj_b_3_1_5_0: s_3_1 - s_5_0 - 10000 z_3_1_5_0 >= -9981
  disj_a_4_2_5_0: s_5_0 - s_4_2 + 10000 z_4_2_5_0 >= 16
  disj_b_4_2_5_0: s_4_2 - s_5_0 - 10000 z_4_2_5_0 >= -9981
  disj_a_0_2_1_0: s_1_0 - s_0_2 + 10000 z_0_2_1_0 >= 12
  disj_b_0_2_1_0: s_0_2 - s_1_0 - 10000 z_0_2_1_0 >= -9998
  disj_a_0_2_2_2: s_2_2 - s_0_2 + 10000 z_0_2_2_2 >= 12
  disj_b_0_2_2_2: s_0_2 - s_2_2 - 10000 z_0_2_2_2 >= -9980
  disj_a_0_2_3_2: s_3_2 - s_0_2 + 10000 z_0_2_3_2 >= 12
  disj_b_0_2_3_2: s_0_2 - s_3_2 - 10000 z_0_2_3_2 >= -9988
  disj_a_0_2_4_0: s_4_0 - s_0_2 + 10000 z_0_2_4_0 >= 12
  disj_b_0_2_4_0: s_0_2 - s_4_0 - 10000 z_0_2_4_0 >= -9984
  disj_a_0_2_5_1: s_5_1 - s_0_2 + 10000 z_0_2_5_1 >= 12
  disj_b_0_2_5_1: s_0_2 - s_5_1 - 10000 z_0_2_5_1 >= -9997
  disj_a_1_0_2_2: s_2_2 - s_1_0 + 10000 z_1_0_2_2 >= 2
  disj_b_1_0_2_2: s_1_0 - s_2_2 - 10000 z_1_0_2_2 >= -9980
  disj_a_1_0_3_2: s_3_2 - s_1_0 + 10000 z_1_0_3_2 >= 2
  disj_b_1_0_3_2: s_1_0 - s_3_2 - 10000 z_1_0_3_2 >= -9988
  disj_a_1_0_4_0: s_4_0 - s_1_0 + 10000 z_1_0_4_0 >= 2
  disj_b_1_0_4_0: s_1_0 - s_4_0 - 10000 z_1_0_4_0 >= -9984
  disj_a_1_0_5_1: s_5_1 - s_1_0 + 10000 z_1_0_5_1 >= 2
  disj_b_1_0_5_1: s_1_0 - s_5_1 - 10000 z_1_0_5_1 >= -9997
  disj_a_2_2_3_2: s_3_2 - s_2_2 + 10000 z_2_2_3_2 >= 20
  disj_b_2_2_3_2: s_2_2 - s_3_2 - 10000 z_2_2_3_2 >= -9988
  disj_a_2_2_4_0: s_4_0 - s_2_2 + 10000 z_2_2_4_0 >= 20
  disj_b_2_2_4_0: s_2_2 - s_4_0 - 10000 z_2_2_4_0 >= -9984
  disj_a_2_2_5_1: s_5_1 - s_2_2 + 10000 z_2_2_5_1 >= 20
  disj_b_2_2_5_1: s_2_2 - s_5_1 - 10000 z_2_2_5_1 >= -9997
  disj_a_3_2_4_0: s_4_0 - s_3_2 + 10000 z_3_2_4_0 >= 12
  disj_b_3_2_4_0: s_3_2 - s_4_0 - 10000 z_3_2_4_0 >= -9984
  disj_a_3_2_5_1: s_5_1 - s_3_2 + 10000 z_3_2_5_1 >= 12
  disj_b_3_2_5_1: s_3_2 - s_5_1 - 10000 z_3_2_5_1 >= -9997
  disj_a_4_0_5_1: s_5_1 - s_4_0 + 10000 z_4_0_5_1 >= 16
  disj_b_4_0_5_1: s_4_0 - s_5_1 - 10000 z_4_0_5_1 >= -9997
Bounds
  0 <= s_0_0 <= 10000
  0 <= s_0_1 <= 10000
  0 <= s_0_2 <= 10000
  0 <= s_1_0 <= 10000
  0 <= s_1_1 <= 10000
  0 <= s_1_2 <= 10000
  0 <= s_2_0 <= 10000
  0 <= s_2_1 <= 10000
  0 <= s_2_2 <= 10000
  0 <= s_3_0 <= 10000
  0 <= s_3_1 <= 10000
  0 <= s_3_2 <= 10000
  0 <= s_4_0 <= 10000
  0 <= s_4_1 <= 10000
  0 <= s_4_2 <= 10000
  0 <= s_5_0 <= 10000
  0 <= s_5_1 <= 10000
  0 <= s_5_2 <= 10000
  0 <= Cmax <= 10000
Binary
  z_0_0_1_2 z_0_0_2_1 z_0_0_3_0 z_0_0_4_1 z_0_0_5_2 z_1_2_2_1 z_1_2_3_0 z_1_2_4_1 z_1_2_5_2 z_2_1_3_0 z_2_1_4_1 z_2_1_5_2 z_3_0_4_1 z_3_0_5_2 z_4_1_5_2 z_0_1_1_1 z_0_1_2_0 z_0_1_3_1 z_0_1_4_2 z_0_1_5_0 z_1_1_2_0 z_1_1_3_1 z_1_1_4_2 z_1_1_5_0 z_2_0_3_1 z_2_0_4_2 z_2_0_5_0 z_3_1_4_2 z_3_1_5_0 z_4_2_5_0 z_0_2_1_0 z_0_2_2_2 z_0_2_3_2 z_0_2_4_0 z_0_2_5_1 z_1_0_2_2 z_1_0_3_2 z_1_0_4_0 z_1_0_5_1 z_2_2_3_2 z_2_2_4_0 z_2_2_5_1 z_3_2_4_0 z_3_2_5_1 z_4_0_5_1
End
